N = 8;
H = 6;
T = 2;

avail = array3d(1..N, 1..H, 1..T, [1, 2, 8, 8, 2, 9, 1, 9, 6, 2, 0, 6, 9, 7, 5, 5, 0, 3, 0, 1, 3, 7, 6, 3, 2, 7, 6, 2, 4, 1, 9, 0, 4, 2, 9, 2, 2, 2, 4, 3, 0, 0, 1, 9, 2, 8, 0, 7, 0, 1, 3, 6, 4, 2, 9, 2, 5, 7, 4, 9, 0, 5, 4, 5, 1, 5, 3, 8, 10, 8, 4, 2, 3, 7, 6, 9, 0, 0, 7, 7, 9, 9, 5, 6, 6, 10, 8, 8, 5, 3, 8, 2, 5, 7, 8, 2]);

r = array2d(1..H, 1..T, [2, 0, 0, 2, 0, 3, 3, 2, 2, 0, 2, 3]);
